
*************************************************************

   NEOS Server Version 5.0
   Job#     : 5401161
   Password : shaCeFYE
   Solver   : nco:Ipopt:AMPL
   Start    : 2017-05-16 06:22:34
   End      : 2017-05-16 06:22:55
   Host     : NEOS HTCondor Pool

   Disclaimer:

   This information is provided without any express or
   implied warranty. In particular, there is no warranty
   of any kind concerning the fitness of this
   information  for any particular purpose.
*************************************************************
Load Avg: ( 3.42 , 1.05 , 0.46 )

File exists

You are using the solver ipopt.

Executing AMPL.

processing data.

processing commands.

Executing on prod-exec-5.neos-server.org



Presolve eliminates 8 constraints.

Adjusted problem:

8 variables, all nonlinear

8 constraints, all nonlinear; 40 nonzeros

	8 inequality constraints

1 nonlinear objective; 8 nonzeros.



Ipopt 3.12.6:



******************************************************************************

This program contains Ipopt, a library for large-scale nonlinear optimization.

 Ipopt is released as open source code under the Eclipse Public License (EPL).

         For more information visit http://projects.coin-or.org/Ipopt

******************************************************************************



This is Ipopt version 3.12.6, running with linear solver mumps.

NOTE: Other linear solvers might be more efficient (see Ipopt documentation).



Number of nonzeros in equality constraint Jacobian...:        0

Number of nonzeros in inequality constraint Jacobian.:       40

Number of nonzeros in Lagrangian Hessian.............:       36



Total number of variables............................:        8

                     variables with only lower bounds:        0

                variables with lower and upper bounds:        8

                     variables with only upper bounds:        0

Total number of equality constraints.................:        0

Total number of inequality constraints...............:        8

        inequality constraints with only lower bounds:        4

   inequality constraints with lower and upper bounds:        0

        inequality constraints with only upper bounds:        4


[...]


iter    objective    inf_pr   inf_du lg(mu)  ||d||  lg(rg) alpha_du alpha_pr  ls

 100  3.0966603e+04 0.00e+00 8.73e+01  -5.7 1.05e+00   1.9 1.00e+00 1.00e+00f  1

 101  2.8754856e+04 0.00e+00 8.39e+01  -5.7 3.03e+00   1.4 1.00e+00 1.00e+00f  1

 102  2.2902534e+04 0.00e+00 7.62e+01  -5.7 8.25e+00   1.0 1.00e+00 1.00e+00f  1

 103  1.3099110e+04 0.00e+00 4.08e+03  -5.7 7.64e+01    -  3.38e-01 1.00e+00f  1

 104  9.1976226e+01 0.00e+00 1.96e+03  -5.7 3.26e+00   2.3 1.38e-02 1.00e+00f  1

 105  6.9165594e-01 0.00e+00 6.42e+01  -5.7 1.84e-01   1.8 7.61e-05 1.00e+00f  1

 106  5.9157590e-01 0.00e+00 5.93e+01  -5.7 7.55e+01    -  9.59e-02 7.55e-02h  1

 107  7.8789364e-06 0.00e+00 7.94e-02  -5.7 4.29e+00    -  1.00e+00 1.00e+00f  1

 108  1.1539449e-05 0.00e+00 1.84e-03  -5.7 8.40e-05   1.3 1.00e+00 1.00e+00h  1

 109  1.2171956e-15 0.00e+00 4.65e-07  -5.7 9.18e-01    -  1.00e+00 1.00e+00h  1

iter    objective    inf_pr   inf_du lg(mu)  ||d||  lg(rg) alpha_du alpha_pr  ls

 110  3.8565529e-17 0.00e+00 1.76e-07  -8.6 8.16e-04    -  1.00e+00 1.00e+00h  1

 111  4.7763808e-17 0.00e+00 5.44e-08  -8.6 7.46e-09   0.9 1.00e+00 1.00e+00h  1

 112  2.3918055e-17 0.00e+00 2.47e-09  -8.6 1.01e-09   0.4 1.00e+00 1.00e+00h  1



Number of Iterations....: 112



                                   (scaled)                 (unscaled)

Objective...............:   2.3918054501324889e-17    2.3918054501324889e-17

Dual infeasibility......:   2.4651802060343550e-09    2.4651802060343550e-09

Constraint violation....:   0.0000000000000000e+00    0.0000000000000000e+00

Complementarity.........:   2.5059035596800622e-09    2.5059035596800622e-09

Overall NLP error.......:   2.5059035596800622e-09    2.5059035596800622e-09





Number of objective function evaluations             = 113

Number of objective gradient evaluations             = 113

Number of equality constraint evaluations            = 0

Number of inequality constraint evaluations          = 113

Number of equality constraint Jacobian evaluations   = 0

Number of inequality constraint Jacobian evaluations = 113

Number of Lagrangian Hessian evaluations             = 112

Total CPU secs in IPOPT (w/o function evaluations)   =      0.051

Total CPU secs in NLP function evaluations           =      0.001



EXIT: Optimal Solution Found.



Ipopt 3.12.6: Optimal Solution Found
